; benchmark generated from python API
(set-info :status unknown)
(declare-fun DISJ_W_S2_R_S2 () Bool)
(declare-fun DISJ_W_S2_R_S1 () Bool)
(declare-fun R_E1_V4 () Bool)
(declare-fun W_S1_V4 () Bool)
(declare-fun R_E1_V5 () Bool)
(declare-fun W_S1_V5 () Bool)
(declare-fun W_S2_V5 () Bool)
(declare-fun W_S2_V2 () Bool)
(declare-fun W_S2_V3 () Bool)
(declare-fun W_S2_V1 () Bool)
(declare-fun R_S2_V4 () Bool)
(declare-fun R_S2_V5 () Bool)
(declare-fun R_S2_V2 () Bool)
(declare-fun R_S2_V3 () Bool)
(declare-fun R_S2_V1 () Bool)
(declare-fun R_S1_V4 () Bool)
(declare-fun R_S1_V5 () Bool)
(declare-fun R_S1_V2 () Bool)
(declare-fun R_S1_V3 () Bool)
(declare-fun R_S1_V1 () Bool)
(declare-fun R_E1_V2 () Bool)
(declare-fun DISJ_W_S2_R_E1 () Bool)
(declare-fun DISJ_W_S1_W_S2 () Bool)
(declare-fun R_E1_V3 () Bool)
(declare-fun DISJ_W_S1_R_S2 () Bool)
(declare-fun DISJ_W_S1_R_S1 () Bool)
(declare-fun W_S2_V4 () Bool)
(declare-fun W_S1_V3 () Bool)
(declare-fun W_S1_V2 () Bool)
(declare-fun W_S1_V1 () Bool)
(declare-fun R_E1_V1 () Bool)
(declare-fun DISJ_W_S1_R_E1 () Bool)
(assert
 (let (($x27 (not (and DISJ_W_S2_R_S1 DISJ_W_S2_R_S2))))
 (let (($x4233 (not (and W_S1_V4 R_E1_V4))))
 (let (($x243 (not (and W_S1_V5 R_E1_V5))))
 (let (($x3118 (forall ((V3_0 Int) )(forall ((V2_0 Int) )(forall ((V5_0 Int) )(forall ((V4_0 Int) )(forall ((MW_S1_V1 Bool) )(forall ((MW_S1_V3 Bool) )(forall ((MW_S1_V2 Bool) )(forall ((MW_S1_V5 Bool) )(forall ((MW_S1_V4 Bool) )(forall ((MW_S2_V1 Bool) )(forall ((MW_S2_V3 Bool) )(forall ((MW_S2_V2 Bool) )(forall ((MW_S2_V5 Bool) )(forall ((MW_S2_V4 Bool) )(forall ((S1_V1_!2447 Int) )(forall ((S1_V1_!2457 Int) )(forall ((S1_V1_!2468 Int) )(forall ((S2_V5_!2455 Int) )(forall ((S2_V5_!2465 Int) )(forall ((S2_V5_!2477 Int) )(forall ((S2_V5_!2482 Int) )(forall ((S1_V3_!2448 Int) )(forall ((S1_V3_!2458 Int) )(forall ((S1_V3_!2469 Int) )(forall ((S1_V2_!2449 Int) )(forall ((S1_V2_!2459 Int) )(forall ((S1_V2_!2470 Int) )(forall ((E1_!2446 Int) )(forall ((E1_!2467 Int) )(forall ((E1_!2473 Int) )(forall ((S2_V4_!2456 Int) )(forall ((S2_V4_!2466 Int) )(forall ((S2_V4_!2478 Int) )(forall ((S2_V4_!2483 Int) )(forall ((S1_V5_!2450 Int) )(forall ((S1_V5_!2460 Int) )(forall ((S1_V5_!2471 Int) )(forall ((S2_V1_!2452 Int) )(forall ((S2_V1_!2462 Int) )(forall ((S2_V1_!2474 Int) )(forall ((S2_V1_!2479 Int) )(forall ((S1_V4_!2451 Int) )(forall ((S1_V4_!2461 Int) )(forall ((S1_V4_!2472 Int) )(forall ((S2_V2_!2454 Int) )(forall ((S2_V2_!2464 Int) )(forall ((S2_V2_!2476 Int) )(forall ((S2_V2_!2481 Int) )(forall ((S2_V3_!2453 Int) )(forall ((S2_V3_!2463 Int) )(forall ((S2_V3_!2475 Int) )(forall ((S2_V3_!2480 Int) )(let (($x666 (= (ite MW_S2_V4 S2_V4_!2466 (ite MW_S1_V4 S1_V4_!2461 (ite MW_S2_V4 S2_V4_!2456 (ite MW_S1_V4 S1_V4_!2451 V4_0)))) (ite MW_S2_V4 S2_V4_!2483 (ite MW_S1_V4 S1_V4_!2472 V4_0)))))
 (let (($x1569 (= (ite MW_S2_V5 S2_V5_!2465 (ite MW_S1_V5 S1_V5_!2460 (ite MW_S2_V5 S2_V5_!2455 (ite MW_S1_V5 S1_V5_!2450 V5_0)))) (ite MW_S2_V5 S2_V5_!2482 (ite MW_S1_V5 S1_V5_!2471 V5_0)))))
 (let ((?x2666 (ite MW_S1_V2 S1_V2_!2470 V2_0)))
 (let ((?x2582 (ite MW_S2_V2 S2_V2_!2481 ?x2666)))
 (let ((?x2259 (ite MW_S1_V2 S1_V2_!2449 V2_0)))
 (let ((?x627 (ite MW_S2_V2 S2_V2_!2454 ?x2259)))
 (let ((?x1238 (ite MW_S1_V2 S1_V2_!2459 ?x627)))
 (let ((?x1055 (ite MW_S2_V2 S2_V2_!2464 ?x1238)))
 (let (($x478 (= (ite MW_S2_V3 S2_V3_!2463 (ite MW_S1_V3 S1_V3_!2458 (ite MW_S2_V3 S2_V3_!2453 (ite MW_S1_V3 S1_V3_!2448 V3_0)))) (ite MW_S2_V3 S2_V3_!2480 (ite MW_S1_V3 S1_V3_!2469 V3_0)))))
 (let ((?x5989 (ite MW_S2_V1 S2_V1_!2474 E1_!2473)))
 (let ((?x164 (+ 1 ?x5989)))
 (let ((?x3381 (ite MW_S2_V1 S2_V1_!2479 ?x164)))
 (let ((?x5851 (ite MW_S1_V1 S1_V1_!2447 E1_!2446)))
 (let ((?x75 (ite MW_S2_V1 S2_V1_!2452 ?x5851)))
 (let ((?x4320 (+ 1 ?x75)))
 (let ((?x1421 (ite MW_S1_V1 S1_V1_!2457 ?x4320)))
 (let ((?x1330 (ite MW_S2_V1 S2_V1_!2462 ?x1421)))
 (let (($x724 (and (not (<= V2_0 E1_!2446)) (not (<= ?x627 ?x4320)) (>= ?x1330 (+ (- 1) ?x1055)) (not (<= V2_0 E1_!2467)) (>= (ite MW_S1_V1 S1_V1_!2468 E1_!2467) (+ (- 1) ?x2666)) (not (<= ?x2666 E1_!2473)) (not (<= (ite MW_S2_V2 S2_V2_!2476 ?x2666) ?x164)) (>= ?x3381 (+ (- 1) ?x2582)))))
 (let (($x2078 (= S2_V3_!2475 S2_V3_!2480)))
 (let (($x1839 (not R_S2_V4)))
 (let (($x1778 (or $x1839 (= (ite MW_S1_V4 S1_V4_!2472 V4_0) (ite MW_S2_V4 S2_V4_!2478 (ite MW_S1_V4 S1_V4_!2472 V4_0))))))
 (let (($x3838 (not R_S2_V5)))
 (let (($x1129 (or $x3838 (= (ite MW_S1_V5 S1_V5_!2471 V5_0) (ite MW_S2_V5 S2_V5_!2477 (ite MW_S1_V5 S1_V5_!2471 V5_0))))))
 (let (($x4911 (not R_S2_V3)))
 (let (($x1858 (or $x4911 (= (ite MW_S1_V3 S1_V3_!2469 V3_0) (ite MW_S2_V3 S2_V3_!2475 (ite MW_S1_V3 S1_V3_!2469 V3_0))))))
 (let (($x4277 (and (or (not R_S2_V1) (= E1_!2473 ?x164)) $x1858 (or (not R_S2_V2) (= ?x2666 (ite MW_S2_V2 S2_V2_!2476 ?x2666))) $x1129 $x1778)))
 (let (($x346 (not $x4277)))
 (let (($x5267 (= S2_V3_!2475 S2_V3_!2463)))
 (let ((?x785 (ite MW_S1_V4 S1_V4_!2451 V4_0)))
 (let ((?x1799 (ite MW_S2_V4 S2_V4_!2456 ?x785)))
 (let ((?x1881 (ite MW_S1_V4 S1_V4_!2461 ?x1799)))
 (let ((?x4673 (ite MW_S1_V4 S1_V4_!2472 V4_0)))
 (let ((?x1691 (ite MW_S1_V5 S1_V5_!2450 V5_0)))
 (let ((?x5282 (ite MW_S2_V5 S2_V5_!2455 ?x1691)))
 (let ((?x2872 (ite MW_S1_V5 S1_V5_!2460 ?x5282)))
 (let ((?x4237 (ite MW_S1_V5 S1_V5_!2471 V5_0)))
 (let ((?x3194 (ite MW_S1_V3 S1_V3_!2448 V3_0)))
 (let ((?x665 (ite MW_S2_V3 S2_V3_!2453 ?x3194)))
 (let ((?x1198 (ite MW_S1_V3 S1_V3_!2458 ?x665)))
 (let ((?x970 (ite MW_S1_V3 S1_V3_!2469 V3_0)))
 (let (($x1750 (and (or (not R_S2_V1) (= E1_!2473 ?x1421)) (or $x4911 (= ?x970 ?x1198)) (or (not R_S2_V2) (= ?x2666 ?x1238)) (or $x3838 (= ?x4237 ?x2872)) (or $x1839 (= ?x4673 ?x1881)))))
 (let (($x5780 (not $x1750)))
 (let (($x5105 (= S2_V3_!2475 S2_V3_!2453)))
 (let (($x4062 (and (or (not R_S2_V1) (= E1_!2473 ?x5851)) (or $x4911 (= ?x970 ?x3194)) (or (not R_S2_V2) (= ?x2666 ?x2259)) (or $x3838 (= ?x4237 ?x1691)) (or $x1839 (= ?x4673 ?x785)))))
 (let (($x5037 (not $x4062)))
 (let (($x3696 (= S2_V3_!2463 S2_V3_!2480)))
 (let (($x5717 (and (or (not R_S2_V1) (= ?x1421 ?x164)) (or $x4911 (= ?x1198 (ite MW_S2_V3 S2_V3_!2475 ?x970))) (or (not R_S2_V2) (= ?x1238 (ite MW_S2_V2 S2_V2_!2476 ?x2666))) (or $x3838 (= ?x2872 (ite MW_S2_V5 S2_V5_!2477 ?x4237))) (or $x1839 (= ?x1881 (ite MW_S2_V4 S2_V4_!2478 ?x4673))))))
 (let (($x5092 (not $x5717)))
 (let (($x1725 (= S2_V3_!2463 S2_V3_!2453)))
 (let (($x3953 (and (or (not R_S2_V1) (= ?x1421 ?x5851)) (or $x4911 (= ?x1198 ?x3194)) (or (not R_S2_V2) (= ?x1238 ?x2259)) (or $x3838 (= ?x2872 ?x1691)) (or $x1839 (= ?x1881 ?x785)))))
 (let (($x4264 (not $x3953)))
 (let (($x260 (= S2_V3_!2453 S2_V3_!2480)))
 (let (($x2951 (and (or (not R_S2_V1) (= ?x5851 ?x164)) (or $x4911 (= ?x3194 (ite MW_S2_V3 S2_V3_!2475 ?x970))) (or (not R_S2_V2) (= ?x2259 (ite MW_S2_V2 S2_V2_!2476 ?x2666))) (or $x3838 (= ?x1691 (ite MW_S2_V5 S2_V5_!2477 ?x4237))) (or $x1839 (= ?x785 (ite MW_S2_V4 S2_V4_!2478 ?x4673))))))
 (let (($x1052 (not $x2951)))
 (let (($x892 (= S2_V2_!2481 S2_V2_!2476)))
 (let (($x1111 (and (or (not R_S2_V1) (= ?x5989 (+ (- 1) E1_!2473))) (or $x4911 (= (ite MW_S2_V3 S2_V3_!2475 ?x970) ?x970)) (or (not R_S2_V2) (= (ite MW_S2_V2 S2_V2_!2476 ?x2666) ?x2666)) (or $x3838 (= (ite MW_S2_V5 S2_V5_!2477 ?x4237) ?x4237)) (or $x1839 (= (ite MW_S2_V4 S2_V4_!2478 ?x4673) ?x4673)))))
 (let (($x1730 (not $x1111)))
 (let (($x4880 (= S2_V2_!2481 S2_V2_!2464)))
 (let (($x1427 (and (or (not R_S2_V1) (= ?x5989 (+ (- 1) ?x1421))) (or $x4911 (= (ite MW_S2_V3 S2_V3_!2475 ?x970) ?x1198)) (or (not R_S2_V2) (= (ite MW_S2_V2 S2_V2_!2476 ?x2666) ?x1238)) (or $x3838 (= (ite MW_S2_V5 S2_V5_!2477 ?x4237) ?x2872)) (or $x1839 (= (ite MW_S2_V4 S2_V4_!2478 ?x4673) ?x1881)))))
 (let (($x2677 (= S2_V2_!2464 S2_V2_!2476)))
 (let (($x2255 (and (or (not R_S2_V1) (= ?x1421 E1_!2473)) (or $x4911 (= ?x1198 ?x970)) (or (not R_S2_V2) (= ?x1238 ?x2666)) (or $x3838 (= ?x2872 ?x4237)) (or $x1839 (= ?x1881 ?x4673)))))
 (let (($x6020 (not $x2255)))
 (let (($x5985 (= S2_V2_!2454 S2_V2_!2476)))
 (let (($x320 (and (or (not R_S2_V1) (= ?x5851 E1_!2473)) (or $x4911 (= ?x3194 ?x970)) (or (not R_S2_V2) (= ?x2259 ?x2666)) (or $x3838 (= ?x1691 ?x4237)) (or $x1839 (= ?x785 ?x4673)))))
 (let (($x847 (not $x320)))
 (let (($x773 (= S2_V2_!2454 S2_V2_!2464)))
 (let (($x863 (and (or (not R_S2_V1) (= ?x5851 ?x1421)) (or $x4911 (= ?x3194 ?x1198)) (or (not R_S2_V2) (= ?x2259 ?x1238)) (or $x3838 (= ?x1691 ?x2872)) (or $x1839 (= ?x785 ?x1881)))))
 (let (($x5948 (not $x863)))
 (let (($x6026 (= S1_V4_!2472 S1_V4_!2461)))
 (let (($x657 (not R_S1_V4)))
 (let (($x3338 (or $x657 (= V4_0 ?x1799))))
 (let (($x1345 (not R_S1_V5)))
 (let (($x5781 (or $x1345 (= V5_0 ?x5282))))
 (let (($x3524 (not R_S1_V2)))
 (let (($x3497 (or $x3524 (= V2_0 ?x627))))
 (let (($x185 (not R_S1_V3)))
 (let (($x3412 (or $x185 (= V3_0 ?x665))))
 (let (($x866 (not (and (or (not R_S1_V1) (= E1_!2467 ?x4320)) $x3412 $x3497 $x5781 $x3338))))
 (let (($x2374 (not (and (or (not R_S1_V1) (= E1_!2446 ?x4320)) $x3412 $x3497 $x5781 $x3338))))
 (let (($x1265 (and (or (not R_S2_V1) (= ?x5989 (+ (- 1) ?x5851))) (or $x4911 (= (ite MW_S2_V3 S2_V3_!2475 ?x970) ?x3194)) (or (not R_S2_V2) (= (ite MW_S2_V2 S2_V2_!2476 ?x2666) ?x2259)) (or $x3838 (= (ite MW_S2_V5 S2_V5_!2477 ?x4237) ?x1691)) (or $x1839 (= (ite MW_S2_V4 S2_V4_!2478 ?x4673) ?x785)))))
 (let (($x3193 (and (or (not R_E1_V2) (= V2_0 ?x2666)) (or (not R_E1_V5) (= V5_0 ?x4237)) (or (not R_E1_V4) (= V4_0 ?x4673)))))
 (let (($x336 (not $x3193)))
 (let (($x2691 (= E1_!2467 E1_!2446)))
 (let (($x1464 (or $x657 (= ?x1799 V4_0))))
 (let (($x4438 (or $x1345 (= ?x5282 V5_0))))
 (let (($x1405 (or $x3524 (= ?x627 V2_0))))
 (let (($x968 (or $x185 (= ?x665 V3_0))))
 (let (($x2341 (and (or (not R_S1_V1) (= ?x75 (+ (- 1) E1_!2467))) $x968 $x1405 $x4438 $x1464)))
 (let (($x1585 (not $x2341)))
 (let (($x2128 (= S1_V2_!2459 S1_V2_!2449)))
 (let (($x1374 (and (or (not R_S1_V1) (= ?x75 (+ (- 1) E1_!2446))) $x968 $x1405 $x4438 $x1464)))
 (let (($x2264 (not $x1374)))
 (let (($x69 (and (or $x2264 (= S1_V1_!2457 S1_V1_!2447)) (or (not (or (not R_S1_V1) $x2691)) (= S1_V1_!2468 S1_V1_!2447)) (or $x866 (= S1_V1_!2468 S1_V1_!2457)) (or $x5948 (= S2_V5_!2455 S2_V5_!2465)) (or $x847 (= S2_V5_!2455 S2_V5_!2477)) (or $x1052 (= S2_V5_!2455 S2_V5_!2482)) (or $x6020 (= S2_V5_!2465 S2_V5_!2477)) (or $x5092 (= S2_V5_!2465 S2_V5_!2482)) (or $x1730 (= S2_V5_!2482 S2_V5_!2477)) (or $x2264 (= S1_V3_!2458 S1_V3_!2448)) (or $x1585 (= S1_V3_!2458 S1_V3_!2469)) (or (not (or (not R_S1_V1) $x2691)) (= S1_V3_!2469 S1_V3_!2448)) (or $x2264 $x2128) (or $x1585 (= S1_V2_!2459 S1_V2_!2470)) (or (not (or (not R_S1_V1) $x2691)) (= S1_V2_!2470 S1_V2_!2449)) (or $x336 (= E1_!2446 E1_!2473)) $x2691 (or $x336 (= E1_!2467 E1_!2473)) (or $x4264 (= S2_V4_!2466 S2_V4_!2456)) (or $x6020 (= S2_V4_!2466 S2_V4_!2478)) (or $x5092 (= S2_V4_!2466 S2_V4_!2483)) (or $x5037 (= S2_V4_!2478 S2_V4_!2456)) (or $x346 (= S2_V4_!2478 S2_V4_!2483)) (or (not $x1265) (= S2_V4_!2483 S2_V4_!2456)) (or $x2374 (= S1_V5_!2450 S1_V5_!2460)) (or (not (or (not R_S1_V1) $x2691)) (= S1_V5_!2471 S1_V5_!2450)) (or $x866 (= S1_V5_!2471 S1_V5_!2460)) (or $x1052 (= S2_V1_!2452 S2_V1_!2479)) (or $x4264 (= S2_V1_!2462 S2_V1_!2452)) (or $x5092 (= S2_V1_!2462 S2_V1_!2479)) (or $x5037 (= S2_V1_!2474 S2_V1_!2452)) (or $x5780 (= S2_V1_!2474 S2_V1_!2462)) (or $x346 (= S2_V1_!2474 S2_V1_!2479)) (or $x2374 (= S1_V4_!2451 S1_V4_!2461)) (or (not (or (not R_S1_V1) (= E1_!2446 E1_!2467))) (= S1_V4_!2451 S1_V4_!2472)) (or $x866 $x6026) (or $x5948 $x773) (or $x847 $x5985) (or $x1052 (= S2_V2_!2454 S2_V2_!2481)) (or $x6020 $x2677) (or (not $x1427) $x4880) (or $x1730 $x892) (or $x1052 $x260) (or $x4264 $x1725) (or $x5092 $x3696) (or $x5037 $x5105) (or $x5780 $x5267) (or $x346 $x2078) (not MW_S1_V1) (not MW_S1_V2) (or (not MW_S1_V5) W_S1_V5) (or (not MW_S1_V4) W_S1_V4) (or (not MW_S2_V1) W_S2_V1) (or (not MW_S2_V3) W_S2_V3) (or (not MW_S2_V2) W_S2_V2) (or (not MW_S2_V5) W_S2_V5))))
 (or (not $x69) (not $x724) (and (= ?x1330 ?x3381) $x478 (= ?x1055 ?x2582) $x1569 $x666))))))))))))))))))))))))))))))))))))))))))))))))))))))))))))))))))))))))))))))))))))))))))))))))
 )
 )
 )
 )
 )
 )
 )
 )
 )
 )
 )
 )
 )
 )
 )
 )
 )
 )
 )
 )
 )
 )
 )
 )
 )
 )
 )
 )
 )
 )
 )
 )
 )
 )
 )
 )
 )
 )
 )
 )
 )
 )
 )
 )
 )
 )
 )
 )
 )
 )
 )
 ))
 (let (($x567 (not (or (and W_S2_V2 R_E1_V2) (and W_S2_V5 R_E1_V5) R_E1_V4))))
 (let (($x3598 (= DISJ_W_S2_R_E1 $x567)))
 (let (($x2217 (and W_S2_V5 R_S2_V5)))
 (let (($x2494 (and W_S2_V2 R_S2_V2)))
 (let (($x671 (and W_S2_V3 R_S2_V3)))
 (let (($x590 (and W_S2_V1 R_S2_V1)))
 (let (($x5411 (= DISJ_W_S2_R_S2 (not (or $x590 $x671 $x2494 $x2217 R_S2_V4)))))
 (let (($x2194 (and W_S2_V5 R_S1_V5)))
 (let (($x1963 (and W_S2_V2 R_S1_V2)))
 (let (($x2405 (and W_S2_V3 R_S1_V3)))
 (let (($x881 (and W_S2_V1 R_S1_V1)))
 (let (($x2327 (= DISJ_W_S2_R_S1 (not (or $x881 $x2405 $x1963 $x2194 R_S1_V4)))))
 (let (($x1047 (= DISJ_W_S1_W_S2 (not (or W_S2_V3 (and W_S1_V5 W_S2_V5) W_S1_V4)))))
 (let (($x1835 (not R_E1_V3)))
 (let (($x355 (not (or R_S2_V3 (and W_S1_V5 R_S2_V5) (and W_S1_V4 R_S2_V4)))))
 (let (($x928 (= DISJ_W_S1_R_S2 $x355)))
 (let (($x3097 (not (or R_S1_V3 (and W_S1_V5 R_S1_V5) (and W_S1_V4 R_S1_V4)))))
 (let (($x1689 (= DISJ_W_S1_R_S1 $x3097)))
 (let (($x6082 (or (and (not W_S2_V2) DISJ_W_S2_R_S1 DISJ_W_S1_R_S1) (and (not W_S2_V1) (not W_S2_V2)) (and (not R_S1_V1) DISJ_W_S1_R_S1))))
 (let (($x2716 (not W_S1_V2)))
 (let (($x3343 (not W_S1_V1)))
 (let (($x2005 (not R_E1_V1)))
 (let (($x1664 (and DISJ_W_S1_R_E1 $x2005 $x3343 $x2716 $x6082 W_S1_V3 W_S2_V4 $x1689 $x928 $x1835 $x1047 $x2327 $x5411 $x3598 $x3118 $x243 $x4233)))
 (and $x1664 $x27)))))))))))))))))))))))))))))
(check-sat)
